25 500
  0     40.0     50.0       0.0      960.0      0.0       0.0       0.0  
  1     25.0     85.0      431.0     911.0     10.0      13.0      20.0  
  2     22.0     75.0      30.0      510.0     10.0      13.0      30.0  
  3     22.0     85.0      291.0     771.0     10.0       7.0      10.0  
  4     20.0     80.0      674.0     734.0     10.0       2.0      40.0  
  5     20.0     85.0      40.0      520.0     10.0      19.0      20.0  
  6     18.0     75.0      393.0     502.0     10.0      17.0      20.0  
  7     15.0     75.0      120.0     600.0     10.0      19.0      20.0  
  8     15.0     80.0      397.0     457.0     10.0       3.0      10.0  
  9     10.0     35.0      401.0     461.0     10.0       5.0      20.0  
 10     10.0     40.0      535.0     622.0     10.0      15.0      30.0  
 11      8.0     40.0      225.0     285.0     10.0      39.0      40.0  
 12      8.0     45.0      43.0      523.0     10.0      12.0      20.0  
 13      5.0     35.0      683.0     743.0     10.0       8.0      10.0  
 14      5.0     45.0      35.0      366.0     10.0       0.0      10.0  
 15      2.0     40.0      204.0     264.0     10.0       6.0      20.0  
 16      0.0     40.0      204.0     425.0     10.0       1.0      20.0  
 17      0.0     45.0      698.0     827.0     10.0      13.0      20.0  
 18     44.0      5.0      306.0     483.0     10.0      20.0      20.0  
 19     42.0     10.0      199.0     428.0     10.0       3.0      40.0  
 20     42.0     15.0      494.0     699.0     10.0      10.0      10.0  
 21     40.0      5.0      45.0      525.0     10.0       5.0      10.0  
 22     40.0     15.0      383.0     486.0     10.0      24.0      40.0  
 23     38.0      5.0      231.0     291.0     10.0       8.0      30.0  
 24     38.0     15.0      609.0     872.0     10.0       5.0      10.0  
 25     35.0      5.0      821.0     881.0     10.0       3.0      20.0  
